 &control
    calculation = 'scf'
    restart_mode='from_scratch',
    prefix='gan',
    tstress = .false.
    tprnfor = .false.
    pseudo_dir ='./'
    outdir='./',
 /
 &system    
    ibrav=  4, celldm(1) = 5.9636, celldm(3)=1.6221, nat= 4, ntyp= 2,
    ecutwfc =100.0, nbnd=16,nosym=.true.,
 /
 &electrons
    diagonalization='david'
    mixing_mode = 'plain'
    mixing_beta = 0.45 
    conv_thr =  1.0d-9
 /
ATOMIC_SPECIES
 Ga  69.723   ga_ppot.gon
 N   14.007    n_ppot.gon
ATOMIC_POSITIONS {crystal}
 Ga   0.333333  0.666667  0.00000
 Ga   0.666667  0.333333  0.50000
 N    0.333333  0.666667  0.37823
 N    0.666667  0.333333  0.87823  
K_POINTS {automatic}
 1 1 1 0 0 0
